(set-logic QF_FP)
(set-option :produce-models true)
(set-info :source |Random FP created by PyMPF|)
(set-info :category random)
(set-info :status unsat)
(declare-const x Float32)
(assert (= x (fp #b1 #b11111111 #b11010101100010110011010)))
(declare-const y Float32)
(assert (= y (fp #b1 #b11111111 #b10100111111101011111011)))
(declare-const z Float32)
(assert (= z (fp #b1 #b00000000 #b11111111111111111111111)))
(declare-const result Float32)
(assert (= result (fp.fma RNE x y z)))
(assert (not (= result (_ NaN 8 24))))
(check-sat)
(exit)
